1 - 0
2 - 0
3 - 0
4 - 0
5 - 0
6 - 0
7 - 0
8 - 0
9 - 0
10 - 0
11 - 0
12 - 0
13 - 0
14 - 0
15 - 0
16 - 0
17 - 0
18 - 0
19 - 0
20 - 0
21 - 0
22 - 0
23 - 0
24 - 0
25 - 0
26 - 0
27 - 0
28 - 0
29 - 0
30 - 0
31 - 0
32 - 0
33 - 0
34 - 0
35 - 0
36 - 0
37 - 0
38 - 0
39 - 0
40 - 0
41 - 0
42 - 0
43 - 0
44 - 0
45 - 0
46 - 0
47 - 0
48 - 0
49 - 0
50 - 0
51 - 0
52 - 0
53 - 0
54 - 0
55 - 0
56 - 0
57 - 0
58 - 0
59 - 0
60 - 0
61 - 0
62 - 0
63 - 0
64 - 0
65 - 0
66 - 0
67 - 0
68 - 0
69 - 0
70 - 0
71 - 0
72 - 0
73 - 0
74 - 0
75 - 0
76 - 0
77 - 0
78 - 0
79 - 0
80 - 0
81 - 0
82 - 0
83 - 0
84 - 0
85 - 0
86 - 0
87 - 0
88 - 0
89 - 0
90 - 0
91 - 0
92 - 0
93 - 0
94 - 0
95 - 0
96 - 0
97 - 0
98 - 0
99 - 0
100 - 0
101 - 0
102 - 0
103 - 0
104 - 0
105 - 0
106 - 0
107 - 0
108 - 0
109 - 0
110 - 0
111 - 0
112 - 0
113 - 0
114 - 0
115 - 0
116 - 0
117 - 0
118 - 0
119 - 0
120 - 0
121 - 0
122 - 0
123 - 0
124 - 0
125 - 0
126 - 0
127 - 0
128 - 0
129 - 0
130 - 0
131 - 0
132 - 0
133 - 0
134 - 0
135 - 0
136 - 0
137 - 0
138 - 0
139 - 0
140 - 0
141 - 0
142 - 0
143 - 0
144 - 0
145 - 0
146 - 0
147 - 0
148 - 0
149 - 0
150 - 0
151 - 0
152 - 0
153 - 0
154 - 0
155 - 0
156 - 0
157 - 0
158 - 0
159 - 0
160 - 1
161 - 1
162 - 4
163 - 6
164 - 13
165 - 33
166 - 69
167 - 126
168 - 221
169 - 339
170 - 503
171 - 774
172 - 1098
173 - 1453
174 - 1897
175 - 2263
176 - 2646
177 - 3022
178 - 3244
179 - 3511
180 - 3578
181 - 3655
182 - 3858
183 - 3904
184 - 3640
185 - 3494
186 - 3344
187 - 3010
188 - 2806
189 - 2629
190 - 2379
191 - 2106
192 - 2123
193 - 1921
194 - 1672
195 - 1591
196 - 1374
197 - 1233
198 - 1100
199 - 1049
200 - 1047
201 - 938
202 - 1012
203 - 901
204 - 869
205 - 775
206 - 819
207 - 830
208 - 762
209 - 755
210 - 752
211 - 753
212 - 747
213 - 761
214 - 696
215 - 685
216 - 657
217 - 663
218 - 648
219 - 636
220 - 647
221 - 602
222 - 659
223 - 610
224 - 602
225 - 560
226 - 545
227 - 539
228 - 524
229 - 497
230 - 513
231 - 491
232 - 489
233 - 436
234 - 446
235 - 422
236 - 426
237 - 424
238 - 384
239 - 392
240 - 386
241 - 370
242 - 386
243 - 368
244 - 379
245 - 351
246 - 325
247 - 319
248 - 304
249 - 315
250 - 326
251 - 286
252 - 297
253 - 295
254 - 298
255 - 273
256 - 289
257 - 294
258 - 270
259 - 265
260 - 248
261 - 253
262 - 231
263 - 235
264 - 201
265 - 203
266 - 225
267 - 225
268 - 202
269 - 207
270 - 199
271 - 210
272 - 217
273 - 190
274 - 171
275 - 195
276 - 205
277 - 184
278 - 212
279 - 164
280 - 162
281 - 169
282 - 156
283 - 154
284 - 155
285 - 177
286 - 175
287 - 175
288 - 143
289 - 168
290 - 187
291 - 120
292 - 156
293 - 140
294 - 132
295 - 129
296 - 168
297 - 142
298 - 142
299 - 131
300 - 127
301 - 126
302 - 114
303 - 142
304 - 140
305 - 141
306 - 123
307 - 104
308 - 126
309 - 126
310 - 111
311 - 139
312 - 124
313 - 120
314 - 135
315 - 126
316 - 122
317 - 140
318 - 121
319 - 121
320 - 119
321 - 98
322 - 132
323 - 116
324 - 135
325 - 111
326 - 132
327 - 92
328 - 114
329 - 123
330 - 117
331 - 116
332 - 108
333 - 88
334 - 100
335 - 95
336 - 91
337 - 101
338 - 82
339 - 77
340 - 73
341 - 59
342 - 48
343 - 53
344 - 52
345 - 31
346 - 22
347 - 17
348 - 8
349 - 3
350 - 0

0.1 - 76230
0.2 - 19930
0.3 - 8030
0.4 - 4147
0.5 - 2491
0.6 - 1661
0.7 - 1255
0.8 - 1030
0.9 - 818
1 - 707
